peakDumbCharging = 11100; 
Machine = anon_enum(16); 
machineSpeed = [3700,3700,3700,3700,3700,3700,3700,3700,3700,3700,3700,3700,3700,3700,3700,3700]; 
machineLoad = [3700,3700,3700,3700,3700,3700,3700,3700,3700,3700,3700,3700,3700,3700,3700,3700]; 
Car = anon_enum(14); 
demandCar = [2400,20280,5200,6240,2240,12160,7680,14360,17080,5600,27680,5760,33560,29520]; 
arrivalCar = [77,73,69,68,66,63,63,60,52,50,48,46,33,33]; 
departureCar = [79,82,73,74,68,70,68,66,58,55,71,49,51,50]; 
